row=7;
column=7;
Board = [|-1, 2, -1, -1, 2, -1, 1|-1, -1, 1, 1, -1, -1, 1|3, -1, 3, -1, 1, 1, -1|-1, -1, -1, -1, 3, -1, -1|-1, 5, -1, -1, -1, -1, -1|-1, 2, 1, -1, -1, -1, 3|-1, 1, 1, 2, 3, 2, -1|]